p cnf 11 30
11 10 8 0
-11 10 8 0
11 10 -8 0
11 -10 -5 0
-11 -9 7 0
-11 -9 3 0
11 8 -4 0
11 -4 1 0
-10 8 -7 0
10 -8 4 0
10 -7 1 0
-10 5 3 0
-10 5 -3 0
9 8 -7 0
9 8 -6 0
9 7 1 0
-9 7 -1 0
-9 -4 -2 0
-8 7 -3 0
8 -7 -2 0
8 5 -3 0
-8 5 1 0
-8 -3 2 0
-7 6 -2 0
-7 5 -4 0
7 4 -2 0
-7 3 1 0
-6 5 -4 0
6 3 1 0
4 -3 -2 0
